nNurses = 171;
nHours = 39;
minHours = 10;
maxHours = 19;
maxConsec = 16;
maxPresence = 25;
demand = [19, 17, 21, 18, 21, 22, 23, 19, 23, 18, 23, 19, 20, 19, 23, 27, 31, 31, 28, 27, 30, 26, 24, 24, 26, 23, 20, 25, 24, 24, 19, 15, 16, 20, 17, 21, 19, 17, 22];
